(set-logic QF_S)
(declare-fun var0 () String)
(assert (str.in.re var0 (re.++ (re.union (re.* (str.to.re "0")) (re.* (str.to.re "11"))) (re.++ (re.+ (re.+ (str.to.re "222"))) (re.++ (re.+ (re.* (str.to.re "3"))) (re.++ (re.union (re.* (str.to.re "44")) (re.* (str.to.re "55"))) (re.++ (re.* (re.* (str.to.re "6"))) (re.++ (re.+ (re.* (str.to.re "7"))) (re.++ (re.+ (re.* (str.to.re "888"))) (re.++ (re.+ (re.* (str.to.re "9"))) (re.++ (re.+ (re.+ (str.to.re "aaa"))) (re.++ (re.+ (re.+ (str.to.re "b"))) (re.++ (re.* (re.union (str.to.re "c") (str.to.re "dd"))) (re.++ (re.* (re.union (str.to.re "ee") (str.to.re "fff"))) (re.++ (re.union (re.union (str.to.re "ggg") (str.to.re "h")) (re.union (str.to.re "i") (str.to.re "j"))) (re.++ (re.union (re.+ (str.to.re "kkk")) (re.+ (str.to.re "lll"))) (re.++ (re.+ (re.union (str.to.re "mmm") (str.to.re "nn"))) (re.++ (re.+ (re.* (str.to.re "oo"))) (re.++ (re.* (re.+ (str.to.re "pp"))) (re.++ (re.union (re.* (str.to.re "qq")) (re.* (str.to.re "rrr"))) (re.++ (re.* (re.union (str.to.re "ss") (str.to.re "tt"))) (re.++ (re.+ (re.* (str.to.re "uuu"))) (re.++ (re.union (re.+ (str.to.re "v")) (re.+ (str.to.re "w"))) (re.++ (re.union (re.* (str.to.re "xx")) (re.* (str.to.re "yy"))) (re.++ (re.* (re.+ (str.to.re "zzz"))) (re.++ (re.+ (re.union (str.to.re "A") (str.to.re "BB"))) (re.++ (re.union (re.* (str.to.re "CCC")) (re.* (str.to.re "D"))) (re.++ (re.+ (re.+ (str.to.re "EEE"))) (re.++ (re.* (re.union (str.to.re "F") (str.to.re "G"))) (re.++ (re.+ (re.* (str.to.re "H"))) (re.++ (re.union (re.* (str.to.re "I")) (re.* (str.to.re "JJ"))) (re.++ (re.+ (re.* (str.to.re "KKK"))) (re.++ (re.* (re.* (str.to.re "LL"))) (re.++ (re.union (re.union (str.to.re "MMM") (str.to.re "NNN")) (re.union (str.to.re "OOO") (str.to.re "PPP"))) (re.++ (re.* (re.* (str.to.re "QQQ"))) (re.++ (re.* (re.+ (str.to.re "R"))) (re.++ (re.* (re.* (str.to.re "SSS"))) (re.++ (re.union (re.* (str.to.re "TT")) (re.* (str.to.re "UUU"))) (re.++ (re.union (re.+ (str.to.re "VVV")) (re.+ (str.to.re "WWW"))) (re.++ (re.union (re.* (str.to.re "X")) (re.* (str.to.re "YYY"))) (re.++ (re.* (re.union (str.to.re "ZZZ") (str.to.re "!!"))) (re.++ (re.+ (re.union (str.to.re """""""") (str.to.re "#"))) (re.++ (re.+ (re.union (str.to.re "$$$") (str.to.re "%%"))) (re.++ (re.union (re.union (str.to.re "&&") (str.to.re "'''")) (re.union (str.to.re "((") (str.to.re "))"))) (re.++ (re.union (re.union (str.to.re "**") (str.to.re "+")) (re.union (str.to.re ",,,") (str.to.re "--"))) (re.++ (re.* (re.* (str.to.re "."))) (re.++ (re.* (re.union (str.to.re "//") (str.to.re ":"))) (re.++ (re.* (re.* (str.to.re ";;;"))) (re.++ (re.* (re.union (str.to.re "<") (str.to.re "=="))) (re.++ (re.* (re.union (str.to.re ">>>") (str.to.re "?"))) (re.++ (re.+ (re.union (str.to.re "@") (str.to.re "[[["))) (re.++ (re.union (re.+ (str.to.re "\\")) (re.+ (str.to.re "]]]"))) (re.++ (re.* (re.+ (str.to.re "^^"))) (re.++ (re.union (re.+ (str.to.re "__")) (re.+ (str.to.re "```"))) (re.++ (re.union (re.* (str.to.re "{{{")) (re.* (str.to.re "|||"))) (re.++ (re.* (re.* (str.to.re "}}}"))) (re.++ (re.union (re.+ (str.to.re "~~")) (re.+ (str.to.re "000"))) (re.++ (re.union (re.+ (str.to.re "111")) (re.+ (str.to.re "222"))) (re.++ (re.* (re.union (str.to.re "333") (str.to.re "4"))) (re.++ (re.* (re.+ (str.to.re "5"))) (re.++ (re.union (re.* (str.to.re "666")) (re.* (str.to.re "77"))) (re.++ (re.* (re.+ (str.to.re "888"))) (re.++ (re.+ (re.+ (str.to.re "99"))) (re.++ (re.* (re.+ (str.to.re "aaa"))) (re.++ (re.union (re.+ (str.to.re "b")) (re.+ (str.to.re "c"))) (re.++ (re.* (re.* (str.to.re "dd"))) (re.++ (re.* (re.union (str.to.re "eee") (str.to.re "ff"))) (re.++ (re.union (re.* (str.to.re "gg")) (re.* (str.to.re "h"))) (re.++ (re.* (re.* (str.to.re "ii"))) (re.++ (re.union (re.+ (str.to.re "j")) (re.+ (str.to.re "k"))) (re.++ (re.+ (re.+ (str.to.re "l"))) (re.++ (re.* (re.union (str.to.re "mm") (str.to.re "n"))) (re.++ (re.+ (re.* (str.to.re "o"))) (re.++ (re.union (re.union (str.to.re "ppp") (str.to.re "qqq")) (re.union (str.to.re "r") (str.to.re "ss"))) (re.++ (re.+ (re.* (str.to.re "tt"))) (re.++ (re.union (re.* (str.to.re "uuu")) (re.* (str.to.re "v"))) (re.++ (re.union (re.+ (str.to.re "ww")) (re.+ (str.to.re "xxx"))) (re.++ (re.union (re.+ (str.to.re "yy")) (re.+ (str.to.re "zz"))) (re.++ (re.union (re.+ (str.to.re "AA")) (re.+ (str.to.re "BBB"))) (re.++ (re.* (re.union (str.to.re "C") (str.to.re "DDD"))) (re.++ (re.+ (re.union (str.to.re "E") (str.to.re "FF"))) (re.++ (re.+ (re.union (str.to.re "G") (str.to.re "HH"))) (re.++ (re.union (re.+ (str.to.re "III")) (re.+ (str.to.re "J"))) (re.++ (re.* (re.union (str.to.re "KKK") (str.to.re "LL"))) (re.++ (re.union (re.+ (str.to.re "MMM")) (re.+ (str.to.re "NN"))) (re.++ (re.+ (re.union (str.to.re "OOO") (str.to.re "PP"))) (re.++ (re.union (re.+ (str.to.re "QQ")) (re.+ (str.to.re "RR"))) (re.++ (re.union (re.union (str.to.re "S") (str.to.re "TTT")) (re.union (str.to.re "UUU") (str.to.re "VV"))) (re.++ (re.+ (re.+ (str.to.re "W"))) (re.++ (re.+ (re.union (str.to.re "X") (str.to.re "Y"))) (re.++ (re.+ (re.+ (str.to.re "Z"))) (re.++ (re.union (re.+ (str.to.re "!")) (re.+ (str.to.re """"))) (re.++ (re.+ (re.* (str.to.re "###"))) (re.++ (re.union (re.union (str.to.re "$$") (str.to.re "%")) (re.union (str.to.re "&") (str.to.re "'''"))) (re.++ (re.* (re.* (str.to.re "("))) (re.++ (re.+ (re.union (str.to.re "))") (str.to.re "*"))) (re.++ (re.+ (re.+ (str.to.re "+"))) (re.++ (re.union (re.union (str.to.re ",,") (str.to.re "--")) (re.union (str.to.re ".") (str.to.re "//"))) (re.++ (re.* (re.+ (str.to.re "::"))) (re.++ (re.* (re.* (str.to.re ";;"))) (re.++ (re.union (re.+ (str.to.re "<<")) (re.+ (str.to.re "==="))) (re.++ (re.* (re.+ (str.to.re ">"))) (re.++ (re.union (re.+ (str.to.re "?")) (re.+ (str.to.re "@@"))) (re.++ (re.* (re.+ (str.to.re "[["))) (re.++ (re.+ (re.* (str.to.re "\\"))) (re.++ (re.+ (re.* (str.to.re "]]"))) (re.++ (re.* (re.union (str.to.re "^") (str.to.re "_"))) (re.++ (re.* (re.* (str.to.re "```"))) (re.++ (re.+ (re.union (str.to.re "{{{") (str.to.re "||"))) (re.++ (re.union (re.union (str.to.re "}}}") (str.to.re "~")) (re.union (str.to.re "000") (str.to.re "1"))) (re.++ (re.+ (re.+ (str.to.re "2"))) (re.++ (re.+ (re.+ (str.to.re "333"))) (re.++ (re.* (re.* (str.to.re "44"))) (re.++ (re.union (re.* (str.to.re "55")) (re.* (str.to.re "66"))) (re.++ (re.union (re.+ (str.to.re "7")) (re.+ (str.to.re "8"))) (re.++ (re.union (re.union (str.to.re "999") (str.to.re "aaa")) (re.union (str.to.re "b") (str.to.re "ccc"))) (re.++ (re.union (re.+ (str.to.re "ddd")) (re.+ (str.to.re "e"))) (re.++ (re.* (re.+ (str.to.re "ff"))) (re.++ (re.* (re.* (str.to.re "g"))) (re.++ (re.union (re.union (str.to.re "hh") (str.to.re "i")) (re.union (str.to.re "j") (str.to.re "kkk"))) (re.++ (re.* (re.union (str.to.re "ll") (str.to.re "m"))) (re.++ (re.+ (re.+ (str.to.re "nn"))) (re.++ (re.+ (re.union (str.to.re "oo") (str.to.re "pp"))) (re.++ (re.+ (re.+ (str.to.re "qq"))) (re.++ (re.* (re.* (str.to.re "r"))) (re.++ (re.+ (re.* (str.to.re "s"))) (re.++ (re.+ (re.* (str.to.re "tt"))) (re.++ (re.+ (re.* (str.to.re "uu"))) (re.++ (re.+ (re.union (str.to.re "vv") (str.to.re "w"))) (re.++ (re.union (re.+ (str.to.re "xx")) (re.+ (str.to.re "yyy"))) (re.++ (re.union (re.+ (str.to.re "z")) (re.+ (str.to.re "A"))) (re.++ (re.* (re.+ (str.to.re "B"))) (re.++ (re.+ (re.* (str.to.re "C"))) (re.++ (re.union (re.+ (str.to.re "D")) (re.+ (str.to.re "E"))) (re.++ (re.+ (re.* (str.to.re "FFF"))) (re.++ (re.+ (re.union (str.to.re "GG") (str.to.re "HHH"))) (re.++ (re.* (re.union (str.to.re "II") (str.to.re "JJJ"))) (re.++ (re.+ (re.union (str.to.re "KK") (str.to.re "L"))) (re.++ (re.* (re.* (str.to.re "MM"))) (re.++ (re.union (re.union (str.to.re "NNN") (str.to.re "OOO")) (re.union (str.to.re "PPP") (str.to.re "Q"))) (re.++ (re.union (re.union (str.to.re "R") (str.to.re "SSS")) (re.union (str.to.re "T") (str.to.re "UUU"))) (re.++ (re.union (re.union (str.to.re "V") (str.to.re "WWW")) (re.union (str.to.re "XXX") (str.to.re "Y"))) (re.++ (re.* (re.+ (str.to.re "ZZ"))) (re.++ (re.union (re.+ (str.to.re "!")) (re.+ (str.to.re """"""))) (re.++ (re.* (re.* (str.to.re "#"))) (re.++ (re.* (re.+ (str.to.re "$$"))) (re.++ (re.union (re.union (str.to.re "%") (str.to.re "&&")) (re.union (str.to.re "'") (str.to.re "(("))) (re.++ (re.union (re.* (str.to.re ")")) (re.* (str.to.re "*"))) (re.++ (re.+ (re.+ (str.to.re "+++"))) (re.+ (re.+ (str.to.re ",,,"))))))))))))))))))))))))))))))))))))))))))))))))))))))))))))))))))))))))))))))))))))))))))))))))))))))))))))))))))))))))))))))))))))))))))))))))))))))))
(check-sat)